3059.14
0 65 64 42 48 33 34 30 37 50 7 0
0 22 20 29 36 69 72 45 44 40 13 0
0 16 32 41 43 49 67 54 4 9 51 0
0 57 61 63 31 47 12 1 35 0
0 60 56 59 62 2 0
0 25 27 38 39 6 10 75 11 0
0 28 24 17 23 46 52 58 14 8 70 5 73 0
0 55 68 26 19 71 3 0
0 66 53 18 15 21 74 0
